1000
[202,203,204,207,208,209,217,218,220,225,230,231,236,238,239,248,251,252,257,261,263,264,265,267,268,272,274,275,276,278,281,283,284,288,289,295,296,298,299,302,303,305,306,308,310,311,323,325,330,332,335,337,339,341,342,343,347,353,354,356,359,371,375,379,386,388,390,392,402,407,411,421,424,426,428,429,431,436,438,442,448,455,456,459,463,469,470,471,478,481,482,483,486,487,495,498,499,503,509,512,513,514,515,518,520,521,524,528,535,536,540,545,547,549,552,562,563,564,565,566,569,573,574,575,579,581,582,583,586,588,591,592,594,597,601,603,605,611,613,614,617,618,624,635,640,642,647,649,654,655,662,666,670,674,681,685,686,688,689,695,700]
[1,2,2,1,2,2,1,1,1,1,1,1,1,1,2,1,2,2,1,1,1,1,2,1,1,1,1,1,1,1,3,1,2,1,1,1,1,2,1,1,1,1,2,1,1,2,2,1,1,1,1,1,1,1,1,1,1,1,1,1,2,1,1,1,2,1,1,1,1,1,2,1,1,2,1,2,1,1,1,2,2,1,1,2,1,1,1,1,1,1,1,1,1,1,1,1,2,1,1,1,2,1,1,1,1,1,1,1,1,1,1,1,2,1,1,1,1,1,1,2,1,1,1,3,1,2,1,1,1,2,1,1,1,1,1,1,2,1,1,1,2,1,1,1,2,1,2,1,1,1,2,3,1,1,1,1,1,1,1,2,1]
